-1 0
0 47
47 45
0 17
17 21
21 23
23 3
45 42
42 26
26 46
46 39
39 19
19 44
44 16
16 33
33 34
33 40
16 43
43 15
15 2
2 22
15 35
35 32
32 24
35 36
24 38
38 9
9 13
22 8
22 29
29 27
27 5
5 1
1 7
7 49
7 48
26 6
6 37
40 30
27 20
20 25
3 12
12 18
18 11
11 10
25 31
20 4
30 41
41 28
30 14
